JulietBench/Juliet_Based_Patch_Bench/FFmpeg/CWE-189-Numeric-Errors/CVE_2014_9604_3881606240953b9275a247a1c98a567f3c44890f/Resultrestore_median_Snippet_patch2EQ.smt2
; benchmark generated from python API
(set-info :status unknown)
(declare-fun R () (_ BitVec 32))
(declare-fun rsi () (_ BitVec 64))
(declare-fun rdi () (_ BitVec 64))
(assert
 (let (($x100 (= (_ bv255 32) R)))
 (let ((?x82 ((_ extract 7 0) rsi)))
 (let ((?x6 ((_ extract 31 0) rdi)))
 (let ((?x28 (bvashr ?x6 (_ bv31 32))))
 (let ((?x29 (concat ?x28 ?x6)))
 (let ((?x33 (bvsdiv ?x29 (_ bv2 64))))
 (let ((?x75 ((_ extract 7 0) ?x33)))
 (let ((?x76 (bvnot ?x75)))
 (let ((?x77 (bvor ?x76 ?x82)))
 (let ((?x73 (bvnot ?x77)))
 (let ((?x74 (bvmul (_ bv50 8) ?x73)))
 (let ((?x69 (bvadd (_ bv255 8) ?x74)))
 (let ((?x93 (concat (_ bv0 24) ?x69)))
 (let (($x91 (= R ?x93)))
 (and $x91 $x100))))))))))))))))
(check-sat)
